\* FSO_PLACEMENT_PROBLEM *\
Maximize
OBJ: __dummy
Subject To
eqn_3_(0): - x_0 + y_0 <= 0
eqn_3_(1): - x_1 + y_1 <= 0
eqn_3_(2): - x_2 + y_2 <= 0
eqn_3_(3): - x_3 + y_3 <= 0
eqn_3_(4): - x_4 + y_4 <= 0
eqn_3_(5): - x_5 + y_5 <= 0
eqn_3_(6): - x_6 + y_6 <= 0
eqn_3_(7): - x_7 + y_7 <= 0
eqn_3_(8): - x_8 + y_8 <= 0
eqn_3_(9): - x_9 + y_9 <= 0
eqn_4_(0,0): b_0_0 - e_0_0 <= 0
eqn_4_(0,1): b_0_1 - e_0_1 <= 0
eqn_4_(0,2): b_0_2 - e_0_2 <= 0
eqn_4_(0,3): b_0_3 - e_0_3 <= 0
eqn_4_(0,4): b_0_4 - e_0_4 <= 0
eqn_4_(0,5): b_0_5 - e_0_5 <= 0
eqn_4_(0,6): b_0_6 - e_0_6 <= 0
eqn_4_(0,7): b_0_7 - e_0_7 <= 0
eqn_4_(0,8): b_0_8 - e_0_8 <= 0
eqn_4_(0,9): b_0_9 - e_0_9 <= 0
eqn_4_(1,0): b_1_0 - e_1_0 <= 0
eqn_4_(1,1): b_1_1 - e_1_1 <= 0
eqn_4_(1,2): b_1_2 - e_1_2 <= 0
eqn_4_(1,3): b_1_3 - e_1_3 <= 0
eqn_4_(1,4): b_1_4 - e_1_4 <= 0
eqn_4_(1,5): b_1_5 - e_1_5 <= 0
eqn_4_(1,6): b_1_6 - e_1_6 <= 0
eqn_4_(1,7): b_1_7 - e_1_7 <= 0
eqn_4_(1,8): b_1_8 - e_1_8 <= 0
eqn_4_(1,9): b_1_9 - e_1_9 <= 0
eqn_4_(2,0): b_2_0 - e_2_0 <= 0
eqn_4_(2,1): b_2_1 - e_2_1 <= 0
eqn_4_(2,2): b_2_2 - e_2_2 <= 0
eqn_4_(2,3): b_2_3 - e_2_3 <= 0
eqn_4_(2,4): b_2_4 - e_2_4 <= 0
eqn_4_(2,5): b_2_5 - e_2_5 <= 0
eqn_4_(2,6): b_2_6 - e_2_6 <= 0
eqn_4_(2,7): b_2_7 - e_2_7 <= 0
eqn_4_(2,8): b_2_8 - e_2_8 <= 0
eqn_4_(2,9): b_2_9 - e_2_9 <= 0
eqn_4_(3,0): b_3_0 - e_3_0 <= 0
eqn_4_(3,1): b_3_1 - e_3_1 <= 0
eqn_4_(3,2): b_3_2 - e_3_2 <= 0
eqn_4_(3,3): b_3_3 - e_3_3 <= 0
eqn_4_(3,4): b_3_4 - e_3_4 <= 0
eqn_4_(3,5): b_3_5 - e_3_5 <= 0
eqn_4_(3,6): b_3_6 - e_3_6 <= 0
eqn_4_(3,7): b_3_7 - e_3_7 <= 0
eqn_4_(3,8): b_3_8 - e_3_8 <= 0
eqn_4_(3,9): b_3_9 - e_3_9 <= 0
eqn_4_(4,0): b_4_0 - e_4_0 <= 0
eqn_4_(4,1): b_4_1 - e_4_1 <= 0
eqn_4_(4,2): b_4_2 - e_4_2 <= 0
eqn_4_(4,3): b_4_3 - e_4_3 <= 0
eqn_4_(4,4): b_4_4 - e_4_4 <= 0
eqn_4_(4,5): b_4_5 - e_4_5 <= 0
eqn_4_(4,6): b_4_6 - e_4_6 <= 0
eqn_4_(4,7): b_4_7 - e_4_7 <= 0
eqn_4_(4,8): b_4_8 - e_4_8 <= 0
eqn_4_(4,9): b_4_9 - e_4_9 <= 0
eqn_4_(5,0): b_5_0 - e_5_0 <= 0
eqn_4_(5,1): b_5_1 - e_5_1 <= 0
eqn_4_(5,2): b_5_2 - e_5_2 <= 0
eqn_4_(5,3): b_5_3 - e_5_3 <= 0
eqn_4_(5,4): b_5_4 - e_5_4 <= 0
eqn_4_(5,5): b_5_5 - e_5_5 <= 0
eqn_4_(5,6): b_5_6 - e_5_6 <= 0
eqn_4_(5,7): b_5_7 - e_5_7 <= 0
eqn_4_(5,8): b_5_8 - e_5_8 <= 0
eqn_4_(5,9): b_5_9 - e_5_9 <= 0
eqn_4_(6,0): b_6_0 - e_6_0 <= 0
eqn_4_(6,1): b_6_1 - e_6_1 <= 0
eqn_4_(6,2): b_6_2 - e_6_2 <= 0
eqn_4_(6,3): b_6_3 - e_6_3 <= 0
eqn_4_(6,4): b_6_4 - e_6_4 <= 0
eqn_4_(6,5): b_6_5 - e_6_5 <= 0
eqn_4_(6,6): b_6_6 - e_6_6 <= 0
eqn_4_(6,7): b_6_7 - e_6_7 <= 0
eqn_4_(6,8): b_6_8 - e_6_8 <= 0
eqn_4_(6,9): b_6_9 - e_6_9 <= 0
eqn_4_(7,0): b_7_0 - e_7_0 <= 0
eqn_4_(7,1): b_7_1 - e_7_1 <= 0
eqn_4_(7,2): b_7_2 - e_7_2 <= 0
eqn_4_(7,3): b_7_3 - e_7_3 <= 0
eqn_4_(7,4): b_7_4 - e_7_4 <= 0
eqn_4_(7,5): b_7_5 - e_7_5 <= 0
eqn_4_(7,6): b_7_6 - e_7_6 <= 0
eqn_4_(7,7): b_7_7 - e_7_7 <= 0
eqn_4_(7,8): b_7_8 - e_7_8 <= 0
eqn_4_(7,9): b_7_9 - e_7_9 <= 0
eqn_4_(8,0): b_8_0 - e_8_0 <= 0
eqn_4_(8,1): b_8_1 - e_8_1 <= 0
eqn_4_(8,2): b_8_2 - e_8_2 <= 0
eqn_4_(8,3): b_8_3 - e_8_3 <= 0
eqn_4_(8,4): b_8_4 - e_8_4 <= 0
eqn_4_(8,5): b_8_5 - e_8_5 <= 0
eqn_4_(8,6): b_8_6 - e_8_6 <= 0
eqn_4_(8,7): b_8_7 - e_8_7 <= 0
eqn_4_(8,8): b_8_8 - e_8_8 <= 0
eqn_4_(8,9): b_8_9 - e_8_9 <= 0
eqn_4_(9,0): b_9_0 - e_9_0 <= 0
eqn_4_(9,1): b_9_1 - e_9_1 <= 0
eqn_4_(9,2): b_9_2 - e_9_2 <= 0
eqn_4_(9,3): b_9_3 - e_9_3 <= 0
eqn_4_(9,4): b_9_4 - e_9_4 <= 0
eqn_4_(9,5): b_9_5 - e_9_5 <= 0
eqn_4_(9,6): b_9_6 - e_9_6 <= 0
eqn_4_(9,7): b_9_7 - e_9_7 <= 0
eqn_4_(9,8): b_9_8 - e_9_8 <= 0
eqn_4_(9,9): b_9_9 - e_9_9 <= 0
eqn_5_(0,0): 0 e_0_0 = 0
eqn_5_(0,1): e_0_1 - e_1_0 = 0
eqn_5_(0,2): e_0_2 - e_2_0 = 0
eqn_5_(0,3): e_0_3 - e_3_0 = 0
eqn_5_(0,4): e_0_4 - e_4_0 = 0
eqn_5_(0,5): e_0_5 - e_5_0 = 0
eqn_5_(0,6): e_0_6 - e_6_0 = 0
eqn_5_(0,7): e_0_7 - e_7_0 = 0
eqn_5_(0,8): e_0_8 - e_8_0 = 0
eqn_5_(0,9): e_0_9 - e_9_0 = 0
eqn_5_(1,0): - e_0_1 + e_1_0 = 0
eqn_5_(1,1): 0 e_1_1 = 0
eqn_5_(1,2): e_1_2 - e_2_1 = 0
eqn_5_(1,3): e_1_3 - e_3_1 = 0
eqn_5_(1,4): e_1_4 - e_4_1 = 0
eqn_5_(1,5): e_1_5 - e_5_1 = 0
eqn_5_(1,6): e_1_6 - e_6_1 = 0
eqn_5_(1,7): e_1_7 - e_7_1 = 0
eqn_5_(1,8): e_1_8 - e_8_1 = 0
eqn_5_(1,9): e_1_9 - e_9_1 = 0
eqn_5_(2,0): - e_0_2 + e_2_0 = 0
eqn_5_(2,1): - e_1_2 + e_2_1 = 0
eqn_5_(2,2): 0 e_2_2 = 0
eqn_5_(2,3): e_2_3 - e_3_2 = 0
eqn_5_(2,4): e_2_4 - e_4_2 = 0
eqn_5_(2,5): e_2_5 - e_5_2 = 0
eqn_5_(2,6): e_2_6 - e_6_2 = 0
eqn_5_(2,7): e_2_7 - e_7_2 = 0
eqn_5_(2,8): e_2_8 - e_8_2 = 0
eqn_5_(2,9): e_2_9 - e_9_2 = 0
eqn_5_(3,0): - e_0_3 + e_3_0 = 0
eqn_5_(3,1): - e_1_3 + e_3_1 = 0
eqn_5_(3,2): - e_2_3 + e_3_2 = 0
eqn_5_(3,3): 0 e_3_3 = 0
eqn_5_(3,4): e_3_4 - e_4_3 = 0
eqn_5_(3,5): e_3_5 - e_5_3 = 0
eqn_5_(3,6): e_3_6 - e_6_3 = 0
eqn_5_(3,7): e_3_7 - e_7_3 = 0
eqn_5_(3,8): e_3_8 - e_8_3 = 0
eqn_5_(3,9): e_3_9 - e_9_3 = 0
eqn_5_(4,0): - e_0_4 + e_4_0 = 0
eqn_5_(4,1): - e_1_4 + e_4_1 = 0
eqn_5_(4,2): - e_2_4 + e_4_2 = 0
eqn_5_(4,3): - e_3_4 + e_4_3 = 0
eqn_5_(4,4): 0 e_4_4 = 0
eqn_5_(4,5): e_4_5 - e_5_4 = 0
eqn_5_(4,6): e_4_6 - e_6_4 = 0
eqn_5_(4,7): e_4_7 - e_7_4 = 0
eqn_5_(4,8): e_4_8 - e_8_4 = 0
eqn_5_(4,9): e_4_9 - e_9_4 = 0
eqn_5_(5,0): - e_0_5 + e_5_0 = 0
eqn_5_(5,1): - e_1_5 + e_5_1 = 0
eqn_5_(5,2): - e_2_5 + e_5_2 = 0
eqn_5_(5,3): - e_3_5 + e_5_3 = 0
eqn_5_(5,4): - e_4_5 + e_5_4 = 0
eqn_5_(5,5): 0 e_5_5 = 0
eqn_5_(5,6): e_5_6 - e_6_5 = 0
eqn_5_(5,7): e_5_7 - e_7_5 = 0
eqn_5_(5,8): e_5_8 - e_8_5 = 0
eqn_5_(5,9): e_5_9 - e_9_5 = 0
eqn_5_(6,0): - e_0_6 + e_6_0 = 0
eqn_5_(6,1): - e_1_6 + e_6_1 = 0
eqn_5_(6,2): - e_2_6 + e_6_2 = 0
eqn_5_(6,3): - e_3_6 + e_6_3 = 0
eqn_5_(6,4): - e_4_6 + e_6_4 = 0
eqn_5_(6,5): - e_5_6 + e_6_5 = 0
eqn_5_(6,6): 0 e_6_6 = 0
eqn_5_(6,7): e_6_7 - e_7_6 = 0
eqn_5_(6,8): e_6_8 - e_8_6 = 0
eqn_5_(6,9): e_6_9 - e_9_6 = 0
eqn_5_(7,0): - e_0_7 + e_7_0 = 0
eqn_5_(7,1): - e_1_7 + e_7_1 = 0
eqn_5_(7,2): - e_2_7 + e_7_2 = 0
eqn_5_(7,3): - e_3_7 + e_7_3 = 0
eqn_5_(7,4): - e_4_7 + e_7_4 = 0
eqn_5_(7,5): - e_5_7 + e_7_5 = 0
eqn_5_(7,6): - e_6_7 + e_7_6 = 0
eqn_5_(7,7): 0 e_7_7 = 0
eqn_5_(7,8): e_7_8 - e_8_7 = 0
eqn_5_(7,9): e_7_9 - e_9_7 = 0
eqn_5_(8,0): - e_0_8 + e_8_0 = 0
eqn_5_(8,1): - e_1_8 + e_8_1 = 0
eqn_5_(8,2): - e_2_8 + e_8_2 = 0
eqn_5_(8,3): - e_3_8 + e_8_3 = 0
eqn_5_(8,4): - e_4_8 + e_8_4 = 0
eqn_5_(8,5): - e_5_8 + e_8_5 = 0
eqn_5_(8,6): - e_6_8 + e_8_6 = 0
eqn_5_(8,7): - e_7_8 + e_8_7 = 0
eqn_5_(8,8): 0 e_8_8 = 0
eqn_5_(8,9): e_8_9 - e_9_8 = 0
eqn_5_(9,0): - e_0_9 + e_9_0 = 0
eqn_5_(9,1): - e_1_9 + e_9_1 = 0
eqn_5_(9,2): - e_2_9 + e_9_2 = 0
eqn_5_(9,3): - e_3_9 + e_9_3 = 0
eqn_5_(9,4): - e_4_9 + e_9_4 = 0
eqn_5_(9,5): - e_5_9 + e_9_5 = 0
eqn_5_(9,6): - e_6_9 + e_9_6 = 0
eqn_5_(9,7): - e_7_9 + e_9_7 = 0
eqn_5_(9,8): - e_8_9 + e_9_8 = 0
eqn_5_(9,9): 0 e_9_9 = 0
eqn_6_(0,0): 0 b_0_0 = 0
eqn_6_(0,1): b_0_1 - b_1_0 = 0
eqn_6_(0,2): b_0_2 - b_2_0 = 0
eqn_6_(0,3): b_0_3 - b_3_0 = 0
eqn_6_(0,4): b_0_4 - b_4_0 = 0
eqn_6_(0,5): b_0_5 - b_5_0 = 0
eqn_6_(0,6): b_0_6 - b_6_0 = 0
eqn_6_(0,7): b_0_7 - b_7_0 = 0
eqn_6_(0,8): b_0_8 - b_8_0 = 0
eqn_6_(0,9): b_0_9 - b_9_0 = 0
eqn_6_(1,0): - b_0_1 + b_1_0 = 0
eqn_6_(1,1): 0 b_1_1 = 0
eqn_6_(1,2): b_1_2 - b_2_1 = 0
eqn_6_(1,3): b_1_3 - b_3_1 = 0
eqn_6_(1,4): b_1_4 - b_4_1 = 0
eqn_6_(1,5): b_1_5 - b_5_1 = 0
eqn_6_(1,6): b_1_6 - b_6_1 = 0
eqn_6_(1,7): b_1_7 - b_7_1 = 0
eqn_6_(1,8): b_1_8 - b_8_1 = 0
eqn_6_(1,9): b_1_9 - b_9_1 = 0
eqn_6_(2,0): - b_0_2 + b_2_0 = 0
eqn_6_(2,1): - b_1_2 + b_2_1 = 0
eqn_6_(2,2): 0 b_2_2 = 0
eqn_6_(2,3): b_2_3 - b_3_2 = 0
eqn_6_(2,4): b_2_4 - b_4_2 = 0
eqn_6_(2,5): b_2_5 - b_5_2 = 0
eqn_6_(2,6): b_2_6 - b_6_2 = 0
eqn_6_(2,7): b_2_7 - b_7_2 = 0
eqn_6_(2,8): b_2_8 - b_8_2 = 0
eqn_6_(2,9): b_2_9 - b_9_2 = 0
eqn_6_(3,0): - b_0_3 + b_3_0 = 0
eqn_6_(3,1): - b_1_3 + b_3_1 = 0
eqn_6_(3,2): - b_2_3 + b_3_2 = 0
eqn_6_(3,3): 0 b_3_3 = 0
eqn_6_(3,4): b_3_4 - b_4_3 = 0
eqn_6_(3,5): b_3_5 - b_5_3 = 0
eqn_6_(3,6): b_3_6 - b_6_3 = 0
eqn_6_(3,7): b_3_7 - b_7_3 = 0
eqn_6_(3,8): b_3_8 - b_8_3 = 0
eqn_6_(3,9): b_3_9 - b_9_3 = 0
eqn_6_(4,0): - b_0_4 + b_4_0 = 0
eqn_6_(4,1): - b_1_4 + b_4_1 = 0
eqn_6_(4,2): - b_2_4 + b_4_2 = 0
eqn_6_(4,3): - b_3_4 + b_4_3 = 0
eqn_6_(4,4): 0 b_4_4 = 0
eqn_6_(4,5): b_4_5 - b_5_4 = 0
eqn_6_(4,6): b_4_6 - b_6_4 = 0
eqn_6_(4,7): b_4_7 - b_7_4 = 0
eqn_6_(4,8): b_4_8 - b_8_4 = 0
eqn_6_(4,9): b_4_9 - b_9_4 = 0
eqn_6_(5,0): - b_0_5 + b_5_0 = 0
eqn_6_(5,1): - b_1_5 + b_5_1 = 0
eqn_6_(5,2): - b_2_5 + b_5_2 = 0
eqn_6_(5,3): - b_3_5 + b_5_3 = 0
eqn_6_(5,4): - b_4_5 + b_5_4 = 0
eqn_6_(5,5): 0 b_5_5 = 0
eqn_6_(5,6): b_5_6 - b_6_5 = 0
eqn_6_(5,7): b_5_7 - b_7_5 = 0
eqn_6_(5,8): b_5_8 - b_8_5 = 0
eqn_6_(5,9): b_5_9 - b_9_5 = 0
eqn_6_(6,0): - b_0_6 + b_6_0 = 0
eqn_6_(6,1): - b_1_6 + b_6_1 = 0
eqn_6_(6,2): - b_2_6 + b_6_2 = 0
eqn_6_(6,3): - b_3_6 + b_6_3 = 0
eqn_6_(6,4): - b_4_6 + b_6_4 = 0
eqn_6_(6,5): - b_5_6 + b_6_5 = 0
eqn_6_(6,6): 0 b_6_6 = 0
eqn_6_(6,7): b_6_7 - b_7_6 = 0
eqn_6_(6,8): b_6_8 - b_8_6 = 0
eqn_6_(6,9): b_6_9 - b_9_6 = 0
eqn_6_(7,0): - b_0_7 + b_7_0 = 0
eqn_6_(7,1): - b_1_7 + b_7_1 = 0
eqn_6_(7,2): - b_2_7 + b_7_2 = 0
eqn_6_(7,3): - b_3_7 + b_7_3 = 0
eqn_6_(7,4): - b_4_7 + b_7_4 = 0
eqn_6_(7,5): - b_5_7 + b_7_5 = 0
eqn_6_(7,6): - b_6_7 + b_7_6 = 0
eqn_6_(7,7): 0 b_7_7 = 0
eqn_6_(7,8): b_7_8 - b_8_7 = 0
eqn_6_(7,9): b_7_9 - b_9_7 = 0
eqn_6_(8,0): - b_0_8 + b_8_0 = 0
eqn_6_(8,1): - b_1_8 + b_8_1 = 0
eqn_6_(8,2): - b_2_8 + b_8_2 = 0
eqn_6_(8,3): - b_3_8 + b_8_3 = 0
eqn_6_(8,4): - b_4_8 + b_8_4 = 0
eqn_6_(8,5): - b_5_8 + b_8_5 = 0
eqn_6_(8,6): - b_6_8 + b_8_6 = 0
eqn_6_(8,7): - b_7_8 + b_8_7 = 0
eqn_6_(8,8): 0 b_8_8 = 0
eqn_6_(8,9): b_8_9 - b_9_8 = 0
eqn_6_(9,0): - b_0_9 + b_9_0 = 0
eqn_6_(9,1): - b_1_9 + b_9_1 = 0
eqn_6_(9,2): - b_2_9 + b_9_2 = 0
eqn_6_(9,3): - b_3_9 + b_9_3 = 0
eqn_6_(9,4): - b_4_9 + b_9_4 = 0
eqn_6_(9,5): - b_5_9 + b_9_5 = 0
eqn_6_(9,6): - b_6_9 + b_9_6 = 0
eqn_6_(9,7): - b_7_9 + b_9_7 = 0
eqn_6_(9,8): - b_8_9 + b_9_8 = 0
eqn_6_(9,9): 0 b_9_9 = 0
eqn_7_(0,0): e_0_0 - x_0 <= 0
eqn_7_(0,1): e_0_1 - 0.5 x_0 - 0.5 x_1 <= 0
eqn_7_(0,2): e_0_2 - 0.5 x_0 - 0.5 x_2 <= 0
eqn_7_(0,3): e_0_3 - 0.5 x_0 - 0.5 x_3 <= 0
eqn_7_(0,4): e_0_4 - 0.5 x_0 - 0.5 x_4 <= 0
eqn_7_(0,5): e_0_5 - 0.5 x_0 - 0.5 x_5 <= 0
eqn_7_(0,6): e_0_6 - 0.5 x_0 - 0.5 x_6 <= 0
eqn_7_(0,7): e_0_7 - 0.5 x_0 - 0.5 x_7 <= 0
eqn_7_(0,8): e_0_8 - 0.5 x_0 - 0.5 x_8 <= 0
eqn_7_(0,9): e_0_9 - 0.5 x_0 - 0.5 x_9 <= 0
eqn_7_(1,0): e_1_0 - 0.5 x_0 - 0.5 x_1 <= 0
eqn_7_(1,1): e_1_1 - x_1 <= 0
eqn_7_(1,2): e_1_2 - 0.5 x_1 - 0.5 x_2 <= 0
eqn_7_(1,3): e_1_3 - 0.5 x_1 - 0.5 x_3 <= 0
eqn_7_(1,4): e_1_4 - 0.5 x_1 - 0.5 x_4 <= 0
eqn_7_(1,5): e_1_5 - 0.5 x_1 - 0.5 x_5 <= 0
eqn_7_(1,6): e_1_6 - 0.5 x_1 - 0.5 x_6 <= 0
eqn_7_(1,7): e_1_7 - 0.5 x_1 - 0.5 x_7 <= 0
eqn_7_(1,8): e_1_8 - 0.5 x_1 - 0.5 x_8 <= 0
eqn_7_(1,9): e_1_9 - 0.5 x_1 - 0.5 x_9 <= 0
eqn_7_(2,0): e_2_0 - 0.5 x_0 - 0.5 x_2 <= 0
eqn_7_(2,1): e_2_1 - 0.5 x_1 - 0.5 x_2 <= 0
eqn_7_(2,2): e_2_2 - x_2 <= 0
eqn_7_(2,3): e_2_3 - 0.5 x_2 - 0.5 x_3 <= 0
eqn_7_(2,4): e_2_4 - 0.5 x_2 - 0.5 x_4 <= 0
eqn_7_(2,5): e_2_5 - 0.5 x_2 - 0.5 x_5 <= 0
eqn_7_(2,6): e_2_6 - 0.5 x_2 - 0.5 x_6 <= 0
eqn_7_(2,7): e_2_7 - 0.5 x_2 - 0.5 x_7 <= 0
eqn_7_(2,8): e_2_8 - 0.5 x_2 - 0.5 x_8 <= 0
eqn_7_(2,9): e_2_9 - 0.5 x_2 - 0.5 x_9 <= 0
eqn_7_(3,0): e_3_0 - 0.5 x_0 - 0.5 x_3 <= 0
eqn_7_(3,1): e_3_1 - 0.5 x_1 - 0.5 x_3 <= 0
eqn_7_(3,2): e_3_2 - 0.5 x_2 - 0.5 x_3 <= 0
eqn_7_(3,3): e_3_3 - x_3 <= 0
eqn_7_(3,4): e_3_4 - 0.5 x_3 - 0.5 x_4 <= 0
eqn_7_(3,5): e_3_5 - 0.5 x_3 - 0.5 x_5 <= 0
eqn_7_(3,6): e_3_6 - 0.5 x_3 - 0.5 x_6 <= 0
eqn_7_(3,7): e_3_7 - 0.5 x_3 - 0.5 x_7 <= 0
eqn_7_(3,8): e_3_8 - 0.5 x_3 - 0.5 x_8 <= 0
eqn_7_(3,9): e_3_9 - 0.5 x_3 - 0.5 x_9 <= 0
eqn_7_(4,0): e_4_0 - 0.5 x_0 - 0.5 x_4 <= 0
eqn_7_(4,1): e_4_1 - 0.5 x_1 - 0.5 x_4 <= 0
eqn_7_(4,2): e_4_2 - 0.5 x_2 - 0.5 x_4 <= 0
eqn_7_(4,3): e_4_3 - 0.5 x_3 - 0.5 x_4 <= 0
eqn_7_(4,4): e_4_4 - x_4 <= 0
eqn_7_(4,5): e_4_5 - 0.5 x_4 - 0.5 x_5 <= 0
eqn_7_(4,6): e_4_6 - 0.5 x_4 - 0.5 x_6 <= 0
eqn_7_(4,7): e_4_7 - 0.5 x_4 - 0.5 x_7 <= 0
eqn_7_(4,8): e_4_8 - 0.5 x_4 - 0.5 x_8 <= 0
eqn_7_(4,9): e_4_9 - 0.5 x_4 - 0.5 x_9 <= 0
eqn_7_(5,0): e_5_0 - 0.5 x_0 - 0.5 x_5 <= 0
eqn_7_(5,1): e_5_1 - 0.5 x_1 - 0.5 x_5 <= 0
eqn_7_(5,2): e_5_2 - 0.5 x_2 - 0.5 x_5 <= 0
eqn_7_(5,3): e_5_3 - 0.5 x_3 - 0.5 x_5 <= 0
eqn_7_(5,4): e_5_4 - 0.5 x_4 - 0.5 x_5 <= 0
eqn_7_(5,5): e_5_5 - x_5 <= 0
eqn_7_(5,6): e_5_6 - 0.5 x_5 - 0.5 x_6 <= 0
eqn_7_(5,7): e_5_7 - 0.5 x_5 - 0.5 x_7 <= 0
eqn_7_(5,8): e_5_8 - 0.5 x_5 - 0.5 x_8 <= 0
eqn_7_(5,9): e_5_9 - 0.5 x_5 - 0.5 x_9 <= 0
eqn_7_(6,0): e_6_0 - 0.5 x_0 - 0.5 x_6 <= 0
eqn_7_(6,1): e_6_1 - 0.5 x_1 - 0.5 x_6 <= 0
eqn_7_(6,2): e_6_2 - 0.5 x_2 - 0.5 x_6 <= 0
eqn_7_(6,3): e_6_3 - 0.5 x_3 - 0.5 x_6 <= 0
eqn_7_(6,4): e_6_4 - 0.5 x_4 - 0.5 x_6 <= 0
eqn_7_(6,5): e_6_5 - 0.5 x_5 - 0.5 x_6 <= 0
eqn_7_(6,6): e_6_6 - x_6 <= 0
eqn_7_(6,7): e_6_7 - 0.5 x_6 - 0.5 x_7 <= 0
eqn_7_(6,8): e_6_8 - 0.5 x_6 - 0.5 x_8 <= 0
eqn_7_(6,9): e_6_9 - 0.5 x_6 - 0.5 x_9 <= 0
eqn_7_(7,0): e_7_0 - 0.5 x_0 - 0.5 x_7 <= 0
eqn_7_(7,1): e_7_1 - 0.5 x_1 - 0.5 x_7 <= 0
eqn_7_(7,2): e_7_2 - 0.5 x_2 - 0.5 x_7 <= 0
eqn_7_(7,3): e_7_3 - 0.5 x_3 - 0.5 x_7 <= 0
eqn_7_(7,4): e_7_4 - 0.5 x_4 - 0.5 x_7 <= 0
eqn_7_(7,5): e_7_5 - 0.5 x_5 - 0.5 x_7 <= 0
eqn_7_(7,6): e_7_6 - 0.5 x_6 - 0.5 x_7 <= 0
eqn_7_(7,7): e_7_7 - x_7 <= 0
eqn_7_(7,8): e_7_8 - 0.5 x_7 - 0.5 x_8 <= 0
eqn_7_(7,9): e_7_9 - 0.5 x_7 - 0.5 x_9 <= 0
eqn_7_(8,0): e_8_0 - 0.5 x_0 - 0.5 x_8 <= 0
eqn_7_(8,1): e_8_1 - 0.5 x_1 - 0.5 x_8 <= 0
eqn_7_(8,2): e_8_2 - 0.5 x_2 - 0.5 x_8 <= 0
eqn_7_(8,3): e_8_3 - 0.5 x_3 - 0.5 x_8 <= 0
eqn_7_(8,4): e_8_4 - 0.5 x_4 - 0.5 x_8 <= 0
eqn_7_(8,5): e_8_5 - 0.5 x_5 - 0.5 x_8 <= 0
eqn_7_(8,6): e_8_6 - 0.5 x_6 - 0.5 x_8 <= 0
eqn_7_(8,7): e_8_7 - 0.5 x_7 - 0.5 x_8 <= 0
eqn_7_(8,8): e_8_8 - x_8 <= 0
eqn_7_(8,9): e_8_9 - 0.5 x_8 - 0.5 x_9 <= 0
eqn_7_(9,0): e_9_0 - 0.5 x_0 - 0.5 x_9 <= 0
eqn_7_(9,1): e_9_1 - 0.5 x_1 - 0.5 x_9 <= 0
eqn_7_(9,2): e_9_2 - 0.5 x_2 - 0.5 x_9 <= 0
eqn_7_(9,3): e_9_3 - 0.5 x_3 - 0.5 x_9 <= 0
eqn_7_(9,4): e_9_4 - 0.5 x_4 - 0.5 x_9 <= 0
eqn_7_(9,5): e_9_5 - 0.5 x_5 - 0.5 x_9 <= 0
eqn_7_(9,6): e_9_6 - 0.5 x_6 - 0.5 x_9 <= 0
eqn_7_(9,7): e_9_7 - 0.5 x_7 - 0.5 x_9 <= 0
eqn_7_(9,8): e_9_8 - 0.5 x_8 - 0.5 x_9 <= 0
eqn_7_(9,9): e_9_9 - x_9 <= 0
eqn_8_(0,0): b_0_0 - y_0 <= 0
eqn_8_(0,1): b_0_1 - 0.5 y_0 - 0.5 y_1 <= 0
eqn_8_(0,2): b_0_2 - 0.5 y_0 - 0.5 y_2 <= 0
eqn_8_(0,3): b_0_3 - 0.5 y_0 - 0.5 y_3 <= 0
eqn_8_(0,4): b_0_4 - 0.5 y_0 - 0.5 y_4 <= 0
eqn_8_(0,5): b_0_5 - 0.5 y_0 - 0.5 y_5 <= 0
eqn_8_(0,6): b_0_6 - 0.5 y_0 - 0.5 y_6 <= 0
eqn_8_(0,7): b_0_7 - 0.5 y_0 - 0.5 y_7 <= 0
eqn_8_(0,8): b_0_8 - 0.5 y_0 - 0.5 y_8 <= 0
eqn_8_(0,9): b_0_9 - 0.5 y_0 - 0.5 y_9 <= 0
eqn_8_(1,0): b_1_0 - 0.5 y_0 - 0.5 y_1 <= 0
eqn_8_(1,1): b_1_1 - y_1 <= 0
eqn_8_(1,2): b_1_2 - 0.5 y_1 - 0.5 y_2 <= 0
eqn_8_(1,3): b_1_3 - 0.5 y_1 - 0.5 y_3 <= 0
eqn_8_(1,4): b_1_4 - 0.5 y_1 - 0.5 y_4 <= 0
eqn_8_(1,5): b_1_5 - 0.5 y_1 - 0.5 y_5 <= 0
eqn_8_(1,6): b_1_6 - 0.5 y_1 - 0.5 y_6 <= 0
eqn_8_(1,7): b_1_7 - 0.5 y_1 - 0.5 y_7 <= 0
eqn_8_(1,8): b_1_8 - 0.5 y_1 - 0.5 y_8 <= 0
eqn_8_(1,9): b_1_9 - 0.5 y_1 - 0.5 y_9 <= 0
eqn_8_(2,0): b_2_0 - 0.5 y_0 - 0.5 y_2 <= 0
eqn_8_(2,1): b_2_1 - 0.5 y_1 - 0.5 y_2 <= 0
eqn_8_(2,2): b_2_2 - y_2 <= 0
eqn_8_(2,3): b_2_3 - 0.5 y_2 - 0.5 y_3 <= 0
eqn_8_(2,4): b_2_4 - 0.5 y_2 - 0.5 y_4 <= 0
eqn_8_(2,5): b_2_5 - 0.5 y_2 - 0.5 y_5 <= 0
eqn_8_(2,6): b_2_6 - 0.5 y_2 - 0.5 y_6 <= 0
eqn_8_(2,7): b_2_7 - 0.5 y_2 - 0.5 y_7 <= 0
eqn_8_(2,8): b_2_8 - 0.5 y_2 - 0.5 y_8 <= 0
eqn_8_(2,9): b_2_9 - 0.5 y_2 - 0.5 y_9 <= 0
eqn_8_(3,0): b_3_0 - 0.5 y_0 - 0.5 y_3 <= 0
eqn_8_(3,1): b_3_1 - 0.5 y_1 - 0.5 y_3 <= 0
eqn_8_(3,2): b_3_2 - 0.5 y_2 - 0.5 y_3 <= 0
eqn_8_(3,3): b_3_3 - y_3 <= 0
eqn_8_(3,4): b_3_4 - 0.5 y_3 - 0.5 y_4 <= 0
eqn_8_(3,5): b_3_5 - 0.5 y_3 - 0.5 y_5 <= 0
eqn_8_(3,6): b_3_6 - 0.5 y_3 - 0.5 y_6 <= 0
eqn_8_(3,7): b_3_7 - 0.5 y_3 - 0.5 y_7 <= 0
eqn_8_(3,8): b_3_8 - 0.5 y_3 - 0.5 y_8 <= 0
eqn_8_(3,9): b_3_9 - 0.5 y_3 - 0.5 y_9 <= 0
eqn_8_(4,0): b_4_0 - 0.5 y_0 - 0.5 y_4 <= 0
eqn_8_(4,1): b_4_1 - 0.5 y_1 - 0.5 y_4 <= 0
eqn_8_(4,2): b_4_2 - 0.5 y_2 - 0.5 y_4 <= 0
eqn_8_(4,3): b_4_3 - 0.5 y_3 - 0.5 y_4 <= 0
eqn_8_(4,4): b_4_4 - y_4 <= 0
eqn_8_(4,5): b_4_5 - 0.5 y_4 - 0.5 y_5 <= 0
eqn_8_(4,6): b_4_6 - 0.5 y_4 - 0.5 y_6 <= 0
eqn_8_(4,7): b_4_7 - 0.5 y_4 - 0.5 y_7 <= 0
eqn_8_(4,8): b_4_8 - 0.5 y_4 - 0.5 y_8 <= 0
eqn_8_(4,9): b_4_9 - 0.5 y_4 - 0.5 y_9 <= 0
eqn_8_(5,0): b_5_0 - 0.5 y_0 - 0.5 y_5 <= 0
eqn_8_(5,1): b_5_1 - 0.5 y_1 - 0.5 y_5 <= 0
eqn_8_(5,2): b_5_2 - 0.5 y_2 - 0.5 y_5 <= 0
eqn_8_(5,3): b_5_3 - 0.5 y_3 - 0.5 y_5 <= 0
eqn_8_(5,4): b_5_4 - 0.5 y_4 - 0.5 y_5 <= 0
eqn_8_(5,5): b_5_5 - y_5 <= 0
eqn_8_(5,6): b_5_6 - 0.5 y_5 - 0.5 y_6 <= 0
eqn_8_(5,7): b_5_7 - 0.5 y_5 - 0.5 y_7 <= 0
eqn_8_(5,8): b_5_8 - 0.5 y_5 - 0.5 y_8 <= 0
eqn_8_(5,9): b_5_9 - 0.5 y_5 - 0.5 y_9 <= 0
eqn_8_(6,0): b_6_0 - 0.5 y_0 - 0.5 y_6 <= 0
eqn_8_(6,1): b_6_1 - 0.5 y_1 - 0.5 y_6 <= 0
eqn_8_(6,2): b_6_2 - 0.5 y_2 - 0.5 y_6 <= 0
eqn_8_(6,3): b_6_3 - 0.5 y_3 - 0.5 y_6 <= 0
eqn_8_(6,4): b_6_4 - 0.5 y_4 - 0.5 y_6 <= 0
eqn_8_(6,5): b_6_5 - 0.5 y_5 - 0.5 y_6 <= 0
eqn_8_(6,6): b_6_6 - y_6 <= 0
eqn_8_(6,7): b_6_7 - 0.5 y_6 - 0.5 y_7 <= 0
eqn_8_(6,8): b_6_8 - 0.5 y_6 - 0.5 y_8 <= 0
eqn_8_(6,9): b_6_9 - 0.5 y_6 - 0.5 y_9 <= 0
eqn_8_(7,0): b_7_0 - 0.5 y_0 - 0.5 y_7 <= 0
eqn_8_(7,1): b_7_1 - 0.5 y_1 - 0.5 y_7 <= 0
eqn_8_(7,2): b_7_2 - 0.5 y_2 - 0.5 y_7 <= 0
eqn_8_(7,3): b_7_3 - 0.5 y_3 - 0.5 y_7 <= 0
eqn_8_(7,4): b_7_4 - 0.5 y_4 - 0.5 y_7 <= 0
eqn_8_(7,5): b_7_5 - 0.5 y_5 - 0.5 y_7 <= 0
eqn_8_(7,6): b_7_6 - 0.5 y_6 - 0.5 y_7 <= 0
eqn_8_(7,7): b_7_7 - y_7 <= 0
eqn_8_(7,8): b_7_8 - 0.5 y_7 - 0.5 y_8 <= 0
eqn_8_(7,9): b_7_9 - 0.5 y_7 - 0.5 y_9 <= 0
eqn_8_(8,0): b_8_0 - 0.5 y_0 - 0.5 y_8 <= 0
eqn_8_(8,1): b_8_1 - 0.5 y_1 - 0.5 y_8 <= 0
eqn_8_(8,2): b_8_2 - 0.5 y_2 - 0.5 y_8 <= 0
eqn_8_(8,3): b_8_3 - 0.5 y_3 - 0.5 y_8 <= 0
eqn_8_(8,4): b_8_4 - 0.5 y_4 - 0.5 y_8 <= 0
eqn_8_(8,5): b_8_5 - 0.5 y_5 - 0.5 y_8 <= 0
eqn_8_(8,6): b_8_6 - 0.5 y_6 - 0.5 y_8 <= 0
eqn_8_(8,7): b_8_7 - 0.5 y_7 - 0.5 y_8 <= 0
eqn_8_(8,8): b_8_8 - y_8 <= 0
eqn_8_(8,9): b_8_9 - 0.5 y_8 - 0.5 y_9 <= 0
eqn_8_(9,0): b_9_0 - 0.5 y_0 - 0.5 y_9 <= 0
eqn_8_(9,1): b_9_1 - 0.5 y_1 - 0.5 y_9 <= 0
eqn_8_(9,2): b_9_2 - 0.5 y_2 - 0.5 y_9 <= 0
eqn_8_(9,3): b_9_3 - 0.5 y_3 - 0.5 y_9 <= 0
eqn_8_(9,4): b_9_4 - 0.5 y_4 - 0.5 y_9 <= 0
eqn_8_(9,5): b_9_5 - 0.5 y_5 - 0.5 y_9 <= 0
eqn_8_(9,6): b_9_6 - 0.5 y_6 - 0.5 y_9 <= 0
eqn_8_(9,7): b_9_7 - 0.5 y_7 - 0.5 y_9 <= 0
eqn_8_(9,8): b_9_8 - 0.5 y_8 - 0.5 y_9 <= 0
eqn_8_(9,9): b_9_9 - y_9 <= 0
eqn_9_(0): y_2 + y_5 + y_7 >= 1
eqn_9_(1): y_2 + y_5 >= 1
eqn_9_(10): y_4 + y_6 >= 1
eqn_9_(11): y_1 + y_2 >= 1
eqn_9_(12): y_6 >= 1
eqn_9_(2): y_6 >= 1
eqn_9_(3): y_9 >= 1
eqn_9_(4): y_6 >= 1
eqn_9_(5): y_0 >= 1
eqn_9_(6): y_1 + y_5 + y_7 >= 1
eqn_9_(7): y_1 + y_6 + y_9 >= 1
eqn_9_(8): y_8 >= 1
eqn_9_(9): y_1 + y_5 >= 1
Bounds
__dummy = 0
b_0_0 <= 1
b_0_1 <= 1
b_0_2 <= 1
b_0_3 <= 1
b_0_4 <= 1
b_0_5 <= 1
b_0_6 <= 1
b_0_7 <= 1
b_0_8 <= 1
b_0_9 <= 1
b_1_0 <= 1
b_1_1 <= 1
b_1_2 <= 1
b_1_3 <= 1
b_1_4 <= 1
b_1_5 <= 1
b_1_6 <= 1
b_1_7 <= 1
b_1_8 <= 1
b_1_9 <= 1
b_2_0 <= 1
b_2_1 <= 1
b_2_2 <= 1
b_2_3 <= 1
b_2_4 <= 1
b_2_5 <= 1
b_2_6 <= 1
b_2_7 <= 1
b_2_8 <= 1
b_2_9 <= 1
b_3_0 <= 1
b_3_1 <= 1
b_3_2 <= 1
b_3_3 <= 1
b_3_4 <= 1
b_3_5 <= 1
b_3_6 <= 1
b_3_7 <= 1
b_3_8 <= 1
b_3_9 <= 1
b_4_0 <= 1
b_4_1 <= 1
b_4_2 <= 1
b_4_3 <= 1
b_4_4 <= 1
b_4_5 <= 1
b_4_6 <= 1
b_4_7 <= 1
b_4_8 <= 1
b_4_9 <= 1
b_5_0 <= 1
b_5_1 <= 1
b_5_2 <= 1
b_5_3 <= 1
b_5_4 <= 1
b_5_5 <= 1
b_5_6 <= 1
b_5_7 <= 1
b_5_8 <= 1
b_5_9 <= 1
b_6_0 <= 1
b_6_1 <= 1
b_6_2 <= 1
b_6_3 <= 1
b_6_4 <= 1
b_6_5 <= 1
b_6_6 <= 1
b_6_7 <= 1
b_6_8 <= 1
b_6_9 <= 1
b_7_0 <= 1
b_7_1 <= 1
b_7_2 <= 1
b_7_3 <= 1
b_7_4 <= 1
b_7_5 <= 1
b_7_6 <= 1
b_7_7 <= 1
b_7_8 <= 1
b_7_9 <= 1
b_8_0 <= 1
b_8_1 <= 1
b_8_2 <= 1
b_8_3 <= 1
b_8_4 <= 1
b_8_5 <= 1
b_8_6 <= 1
b_8_7 <= 1
b_8_8 <= 1
b_8_9 <= 1
b_9_0 <= 1
b_9_1 <= 1
b_9_2 <= 1
b_9_3 <= 1
b_9_4 <= 1
b_9_5 <= 1
b_9_6 <= 1
b_9_7 <= 1
b_9_8 <= 1
b_9_9 <= 1
e_0_0 <= 1
e_0_1 <= 1
e_0_2 <= 1
e_0_3 <= 1
e_0_4 <= 1
e_0_5 <= 1
e_0_6 <= 1
e_0_7 <= 1
e_0_8 <= 1
e_0_9 <= 1
e_1_0 <= 1
e_1_1 <= 1
e_1_2 <= 1
e_1_3 <= 1
e_1_4 <= 1
e_1_5 <= 1
e_1_6 <= 1
e_1_7 <= 1
e_1_8 <= 1
e_1_9 <= 1
e_2_0 <= 1
e_2_1 <= 1
e_2_2 <= 1
e_2_3 <= 1
e_2_4 <= 1
e_2_5 <= 1
e_2_6 <= 1
e_2_7 <= 1
e_2_8 <= 1
e_2_9 <= 1
e_3_0 <= 1
e_3_1 <= 1
e_3_2 <= 1
e_3_3 <= 1
e_3_4 <= 1
e_3_5 <= 1
e_3_6 <= 1
e_3_7 <= 1
e_3_8 <= 1
e_3_9 <= 1
e_4_0 <= 1
e_4_1 <= 1
e_4_2 <= 1
e_4_3 <= 1
e_4_4 <= 1
e_4_5 <= 1
e_4_6 <= 1
e_4_7 <= 1
e_4_8 <= 1
e_4_9 <= 1
e_5_0 <= 1
e_5_1 <= 1
e_5_2 <= 1
e_5_3 <= 1
e_5_4 <= 1
e_5_5 <= 1
e_5_6 <= 1
e_5_7 <= 1
e_5_8 <= 1
e_5_9 <= 1
e_6_0 <= 1
e_6_1 <= 1
e_6_2 <= 1
e_6_3 <= 1
e_6_4 <= 1
e_6_5 <= 1
e_6_6 <= 1
e_6_7 <= 1
e_6_8 <= 1
e_6_9 <= 1
e_7_0 <= 1
e_7_1 <= 1
e_7_2 <= 1
e_7_3 <= 1
e_7_4 <= 1
e_7_5 <= 1
e_7_6 <= 1
e_7_7 <= 1
e_7_8 <= 1
e_7_9 <= 1
e_8_0 <= 1
e_8_1 <= 1
e_8_2 <= 1
e_8_3 <= 1
e_8_4 <= 1
e_8_5 <= 1
e_8_6 <= 1
e_8_7 <= 1
e_8_8 <= 1
e_8_9 <= 1
e_9_0 <= 1
e_9_1 <= 1
e_9_2 <= 1
e_9_3 <= 1
e_9_4 <= 1
e_9_5 <= 1
e_9_6 <= 1
e_9_7 <= 1
e_9_8 <= 1
e_9_9 <= 1
x_0 <= 1
x_1 <= 1
x_2 <= 1
x_3 <= 1
x_4 <= 1
x_5 <= 1
x_6 <= 1
x_7 <= 1
x_8 <= 1
x_9 <= 1
End
